Cost: 515
0-17-3-44-32-40-12-0
0-58-38-11-59-14-53-0
0-26-7-35-19-54-8-46-0
0-34-52-27-45-4-0
0-47-36-60-37-5-29-0
0-62-22-64-42-43-23-63-0
0-30-21-61-28-2-6-0
Cost: 515
0-63-23-43-42-64-22-62-0
0-46-8-54-19-35-7-26-0
0-4-45-27-52-34-0
0-58-38-11-59-14-53-0
0-30-21-61-28-2-6-0
0-29-5-37-60-36-47-0
0-17-3-44-32-40-12-0
Cost: 515
0-17-3-44-32-40-12-0
0-58-38-11-59-14-53-0
0-26-7-35-19-54-8-46-0
0-34-52-27-45-4-0
0-47-36-60-37-5-29-0
0-62-22-64-42-43-23-63-0
0-30-21-61-28-2-6-0
Cost: 515
0-17-3-44-32-40-12-0
0-58-38-11-59-14-53-0
0-26-7-35-19-54-8-46-0
0-34-52-27-45-4-0
0-47-36-60-37-5-29-0
0-62-22-64-42-43-23-63-0
0-30-21-61-28-2-6-0
Cost: 515
0-17-3-44-32-40-12-0
0-58-38-11-59-14-53-0
0-26-7-35-19-54-8-46-0
0-34-52-27-45-4-0
0-47-36-60-37-5-29-0
0-62-22-64-42-43-23-63-0
0-30-21-61-28-2-6-0
Cost: 515
0-17-3-44-32-40-12-0
0-58-38-11-59-14-53-0
0-26-7-35-19-54-8-46-0
0-34-52-27-45-4-0
0-47-36-60-37-5-29-0
0-62-22-64-42-43-23-63-0
0-30-21-61-28-2-6-0
Cost: 515
0-17-3-44-32-40-12-0
0-58-38-11-59-14-53-0
0-26-7-35-19-54-8-46-0
0-34-52-27-45-4-0
0-47-36-60-37-5-29-0
0-62-22-64-42-43-23-63-0
0-30-21-61-28-2-6-0
Cost: 515
0-17-3-44-32-40-12-0
0-58-38-11-59-14-53-0
0-26-7-35-19-54-8-46-0
0-34-52-27-45-4-0
0-47-36-60-37-5-29-0
0-62-22-64-42-43-23-63-0
0-30-21-61-28-2-6-0
Cost: 515
0-17-3-44-32-40-12-0
0-58-38-11-59-14-53-0
0-26-7-35-19-54-8-46-0
0-34-52-27-45-4-0
0-47-36-60-37-5-29-0
0-62-22-64-42-43-23-63-0
0-30-21-61-28-2-6-0
Cost: 515
0-47-36-60-37-5-29-0
0-6-2-28-61-21-30-0
0-17-3-44-32-40-12-0
0-46-8-54-19-35-7-26-0
0-34-52-27-45-4-0
0-62-22-64-42-43-23-63-0
0-58-38-11-59-14-53-0
Cost: 515
0-47-36-60-37-5-29-0
0-6-2-28-61-21-30-0
0-17-3-44-32-40-12-0
0-46-8-54-19-35-7-26-0
0-34-52-27-45-4-0
0-62-22-64-42-43-23-63-0
0-58-38-11-59-14-53-0
Cost: 515
0-47-36-60-37-5-29-0
0-6-2-28-61-21-30-0
0-17-3-44-32-40-12-0
0-46-8-54-19-35-7-26-0
0-34-52-27-45-4-0
0-62-22-64-42-43-23-63-0
0-58-38-11-59-14-53-0
Cost: 515
0-58-38-11-59-14-53-0
0-30-21-61-28-2-6-0
0-62-22-64-42-43-23-63-0
0-29-5-37-60-36-47-0
0-46-8-54-19-35-7-26-0
0-34-52-27-45-4-0
0-17-3-44-32-40-12-0
Cost: 515
0-47-36-60-37-5-29-0
0-6-2-28-61-21-30-0
0-17-3-44-32-40-12-0
0-46-8-54-19-35-7-26-0
0-34-52-27-45-4-0
0-62-22-64-42-43-23-63-0
0-58-38-11-59-14-53-0
Cost: 515
0-47-36-60-37-5-29-0
0-6-2-28-61-21-30-0
0-17-3-44-32-40-12-0
0-46-8-54-19-35-7-26-0
0-34-52-27-45-4-0
0-62-22-64-42-43-23-63-0
0-58-38-11-59-14-53-0
Cost: 515
0-47-36-60-37-5-29-0
0-6-2-28-61-21-30-0
0-17-3-44-32-40-12-0
0-46-8-54-19-35-7-26-0
0-34-52-27-45-4-0
0-62-22-64-42-43-23-63-0
0-58-38-11-59-14-53-0
Cost: 515
0-53-14-59-11-38-58-0
0-30-21-61-28-2-6-0
0-29-5-37-60-36-47-0
0-26-7-35-19-54-8-46-0
0-4-45-27-52-34-0
0-62-22-64-42-43-23-63-0
0-12-40-32-44-3-17-0
Cost: 515
0-26-7-35-19-54-8-46-0
0-17-3-44-32-40-12-0
0-34-52-27-45-4-0
0-53-14-59-11-38-58-0
0-62-22-64-42-43-23-63-0
0-30-21-61-28-2-6-0
0-29-5-37-60-36-47-0
Cost: 515
0-26-7-35-19-54-8-46-0
0-17-3-44-32-40-12-0
0-34-52-27-45-4-0
0-53-14-59-11-38-58-0
0-62-22-64-42-43-23-63-0
0-30-21-61-28-2-6-0
0-29-5-37-60-36-47-0
Cost: 515
0-26-7-35-19-54-8-46-0
0-17-3-44-32-40-12-0
0-34-52-27-45-4-0
0-53-14-59-11-38-58-0
0-62-22-64-42-43-23-63-0
0-30-21-61-28-2-6-0
0-29-5-37-60-36-47-0
Cost: 515
0-26-7-35-19-54-8-46-0
0-17-3-44-32-40-12-0
0-34-52-27-45-4-0
0-53-14-59-11-38-58-0
0-62-22-64-42-43-23-63-0
0-30-21-61-28-2-6-0
0-29-5-37-60-36-47-0
Cost: 515
0-58-38-11-59-14-53-0
0-4-45-27-52-34-0
0-17-3-44-32-40-12-0
0-63-23-43-42-64-22-62-0
0-30-21-61-28-2-6-0
0-46-8-54-19-35-7-26-0
0-47-36-60-37-5-29-0
Cost: 515
0-26-7-35-19-54-8-46-0
0-17-3-44-32-40-12-0
0-34-52-27-45-4-0
0-53-14-59-11-38-58-0
0-62-22-64-42-43-23-63-0
0-30-21-61-28-2-6-0
0-29-5-37-60-36-47-0
Cost: 515
0-53-14-59-11-38-58-0
0-30-21-61-28-2-6-0
0-29-5-37-60-36-47-0
0-26-7-35-19-54-8-46-0
0-4-45-27-52-34-0
0-62-22-64-42-43-23-63-0
0-12-40-32-44-3-17-0
Cost: 515
0-26-7-35-19-54-8-46-0
0-17-3-44-32-40-12-0
0-34-52-27-45-4-0
0-53-14-59-11-38-58-0
0-62-22-64-42-43-23-63-0
0-30-21-61-28-2-6-0
0-29-5-37-60-36-47-0
Cost: 515
0-47-36-60-37-5-29-0
0-63-23-43-42-64-22-62-0
0-46-8-54-19-35-7-26-0
0-17-3-44-32-40-12-0
0-34-52-27-45-4-0
0-53-14-59-11-38-58-0
0-6-2-28-61-21-30-0
Cost: 519
0-12-40-32-44-3-17-0
0-34-52-27-45-4-0
0-35-14-59-54-19-8-46-0
0-26-58-10-38-53-7-0
0-6-2-28-61-21-30-0
0-47-36-60-37-5-29-0
0-62-22-64-42-43-23-63-0
Cost: 515
0-30-21-61-28-2-6-0
0-12-40-32-44-3-17-0
0-58-38-11-59-14-53-0
0-34-52-27-45-4-0
0-46-8-54-19-35-7-26-0
0-62-22-64-42-43-23-63-0
0-47-36-60-37-5-29-0
Cost: 515
0-4-45-27-52-34-0
0-29-5-37-60-36-47-0
0-53-14-59-11-38-58-0
0-63-23-43-42-64-22-62-0
0-17-3-44-32-40-12-0
0-30-21-61-28-2-6-0
0-46-8-54-19-35-7-26-0
Cost: 515
0-46-8-54-19-35-7-26-0
0-4-45-27-52-34-0
0-63-23-43-42-64-22-62-0
0-30-21-61-28-2-6-0
0-12-40-32-44-3-17-0
0-58-38-11-59-14-53-0
0-47-36-60-37-5-29-0
